Version identifier: 22.1.0.0 | 2022-03-09 | 1a383f8ce
CPXPARAM_Read_DataCheck                          1
CPXPARAM_Threads                                 1
CPXPARAM_TimeLimit                               3600
Tried aggregator 2 times.
MIP Presolve eliminated 594 rows and 112 columns.
MIP Presolve modified 4040 coefficients.
Aggregator did 57 substitutions.
Reduced MIP has 960 rows, 191 columns, and 5704 nonzeros.
Reduced MIP has 142 binaries, 0 generals, 0 SOSs, and 0 indicators.
Presolve time = 0.01 sec. (10.50 ticks)
Found incumbent of value 16.320000 after 0.02 sec. (14.75 ticks)
Probing fixed 5 vars, tightened 0 bounds.
Probing time = 0.00 sec. (2.48 ticks)
Tried aggregator 1 time.
Detecting symmetries...
MIP Presolve eliminated 10 rows and 5 columns.
Reduced MIP has 950 rows, 186 columns, and 5585 nonzeros.
Reduced MIP has 137 binaries, 0 generals, 0 SOSs, and 0 indicators.
Presolve time = 0.00 sec. (2.78 ticks)
Probing time = 0.00 sec. (2.58 ticks)
Clique table members: 656.
MIP emphasis: balance optimality and feasibility.
MIP search method: dynamic search.
Parallel mode: none, using 1 thread.
Root relaxation solution time = 0.00 sec. (2.79 ticks)

        Nodes                                         Cuts/
   Node  Left     Objective  IInf  Best Integer    Best Bound    ItCnt     Gap

*     0+    0                           16.3200        9.7400            40.32%
      0     0        9.7400    34       16.3200        9.7400       62   40.32%
*     0+    0                           11.6600        9.7400            16.47%
      0     0        9.7400    28       11.6600     Cuts: 224      172   16.47%
      0     0        9.7400    26       11.6600      Cuts: 99      239   16.47%
Detecting symmetries...

Repeating presolve.
Tried aggregator 1 time.
MIP Presolve eliminated 340 rows and 51 columns.
MIP Presolve modified 582 coefficients.
Reduced MIP has 610 rows, 135 columns, and 3163 nonzeros.
Reduced MIP has 96 binaries, 0 generals, 0 SOSs, and 0 indicators.
Presolve time = 0.00 sec. (2.92 ticks)
Probing fixed 1 vars, tightened 2 bounds.
Probing time = 0.00 sec. (2.30 ticks)
Tried aggregator 1 time.
Detecting symmetries...
MIP Presolve eliminated 6 rows and 1 columns.
MIP Presolve modified 49 coefficients.
Reduced MIP has 604 rows, 134 columns, and 3129 nonzeros.
Reduced MIP has 95 binaries, 0 generals, 0 SOSs, and 0 indicators.
Presolve time = 0.00 sec. (1.80 ticks)
Represolve time = 0.01 sec. (7.81 ticks)
Probing time = 0.00 sec. (2.26 ticks)
Clique table members: 955.
MIP emphasis: balance optimality and feasibility.
MIP search method: dynamic search.
Parallel mode: none, using 1 thread.
Root relaxation solution time = 0.00 sec. (2.64 ticks)

        Nodes                                         Cuts/
   Node  Left     Objective  IInf  Best Integer    Best Bound    ItCnt     Gap

*     0+    0                           11.6600        9.7400            16.47%
      0     0        9.7400    33       11.6600        9.7400      349   16.47%
      0     0        9.7400    17       11.6600       Cuts: 5      367   16.47%
      0     0        9.7400    25       11.6600      Cuts: 69      424   16.47%
      0     0        9.7400    18       11.6600      Cuts: 19      462   16.47%
      0     0        9.7400    31       11.6600      Cuts: 81      525   16.47%
*     0+    0                            9.7400        9.7400             0.00%
      0     0        cutoff              9.7400        9.7400      525    0.00%
Elapsed time = 0.18 sec. (142.24 ticks, tree = 0.01 MB, solutions = 3)

GUB cover cuts applied:  5
Clique cuts applied:  14
Implied bound cuts applied:  3
Flow cuts applied:  3
Mixed integer rounding cuts applied:  7

Root node processing (before b&c):
  Real time             =    0.18 sec. (142.27 ticks)
Sequential b&c:
  Real time             =    0.00 sec. (0.00 ticks)
                          ------------
Total (root+branch&cut) =    0.18 sec. (142.27 ticks)
